StringID Type x y demand ReadyTime DueDate ServiceTime
D0 d 40 50 0 0 240 0
Dt d 40 50 0 0 240 0
S0 f 40 50 0 0 240 0
S11 f 10 28 0 0 240 0
S14 f 27 10 0 0 240 0
S19 f 77 30 0 0 240 0
C34 c2 85 35 30 68 182 10
C21 c2 40 5 10 55 185 10
C97 c2 4 18 35 58 131 10
C71 c2 65 55 14 26 111 10
C15 c3 2 40 20 96 190 10
P0 p 59 25 0 0 240 45
param Q := 77.75
param CV := 200
param r := 1
param g := 0.39
param V := 1
